p wcnf 171 86 87 
1 -84 -21 0 
1 75 -32 0 
1 -56 -80 0 
1 59 56 0 
1 -34 149 0 
1 41 -51 0 
1 100 60 0 
1 114 -60 0 
1 120 -166 0 
1 160 -133 0 
1 98 -151 0 
1 -135 58 0 
1 -43 -146 0 
1 -156 -141 0 
1 49 22 0 
1 94 -119 0 
1 162 -153 0 
1 140 -143 0 
1 -44 71 0 
1 -168 -146 0 
1 15 -67 0 
1 -14 109 0 
1 158 53 0 
1 -49 132 0 
1 161 -62 0 
1 -115 52 0 
1 47 35 0 
1 141 157 0 
1 61 -110 0 
1 51 -8 0 
1 -75 162 0 
1 138 -136 0 
1 73 49 0 
1 -10 -106 0 
1 92 -98 0 
1 -42 147 0 
1 159 -105 0 
1 114 -113 0 
1 109 -67 0 
1 59 -12 0 
1 128 -14 0 
1 -96 153 0 
1 -26 19 0 
1 118 119 0 
1 -117 33 0 
1 -130 -159 0 
1 -137 -2 0 
1 45 88 0 
1 -90 -13 0 
1 -122 -115 0 
1 133 152 0 
1 -58 94 0 
1 -78 110 0 
1 -78 -75 0 
1 46 -132 0 
1 64 91 0 
1 -119 -143 0 
1 -39 9 0 
1 -137 33 0 
1 104 -44 0 
1 106 77 0 
1 -148 87 0 
1 84 -129 0 
1 158 -56 0 
1 -91 19 0 
1 -24 -126 0 
1 79 155 0 
1 -63 -67 0 
1 -2 163 0 
1 121 -62 0 
1 118 -123 0 
1 -140 -107 0 
1 -116 24 0 
1 -2 -108 0 
1 169 95 0 
1 -110 42 0 
1 -72 -164 0 
1 -30 42 0 
1 129 -47 0 
1 8 -138 0 
1 49 -78 0 
1 96 151 0 
1 31 113 0 
1 133 -121 0 
1 -42 -124 0 
1 -136 -119 0 
